language Essence 1.3

letting length be 4
letting boxed_mesh_containment be {sequence(1,3,2)}

$ 10 Solutions for containments should be
$ Containing pattern
$ 1243, 1324, 1342, 1423, 1432, 2143, 2413, 2431, 3142, 4132
